Lendo entrada...
Fim leitura entrada !
5, 2, 10
5 6 4 8 5 
a = 2, b = 3
a = 5, b = 1
numero_colunas: 30, quant_items: 5 
Criando nomes para variáveis: 
M_1_1[1] M_1_2[2] M_1_3[3] M_1_4[4] M_1_5[5] 
M_2_1[6] M_2_2[7] M_2_3[8] M_2_4[9] M_2_5[10] 
M_3_1[11] M_3_2[12] M_3_3[13] M_3_4[14] M_3_5[15] 
M_4_1[16] M_4_2[17] M_4_3[18] M_4_4[19] M_4_5[20] 
M_5_1[21] M_5_2[22] M_5_3[23] M_5_4[24] M_5_5[25] 

Y_1 Y_2 Y_3 Y_4 Y_5 
Nomes de variáveis criados !
Criando restrições...
Criando restrição para linha da matriz: 
M_1_1 [1] + M_1_2 [2] + M_1_3 [3] + M_1_4 [4] + M_1_5 [5] = 1.00
M_2_1 [6] + M_2_2 [7] + M_2_3 [8] + M_2_4 [9] + M_2_5 [10] = 1.00
M_3_1 [11] + M_3_2 [12] + M_3_3 [13] + M_3_4 [14] + M_3_5 [15] = 1.00
M_4_1 [16] + M_4_2 [17] + M_4_3 [18] + M_4_4 [19] + M_4_5 [20] = 1.00
M_5_1 [21] + M_5_2 [22] + M_5_3 [23] + M_5_4 [24] + M_5_5 [25] = 1.00
Criando restrição para coluna da matriz: 
5*M_1_1 [1] + 6*M_2_1 [6] + 4*M_3_1 [11] + 8*M_4_1 [16] + 5*M_5_1 [21] + 5.0*M_1_1 [1] <= 0
5*M_1_2 [2] + 6*M_2_2 [7] + 4*M_3_2 [12] + 8*M_4_2 [17] + 5*M_5_2 [22] + 6.0*M_2_2 [7] <= 0
5*M_1_3 [3] + 6*M_2_3 [8] + 4*M_3_3 [13] + 8*M_4_3 [18] + 5*M_5_3 [23] + 4.0*M_3_3 [13] <= 0
5*M_1_4 [4] + 6*M_2_4 [9] + 4*M_3_4 [14] + 8*M_4_4 [19] + 5*M_5_4 [24] + 8.0*M_4_4 [19] <= 0
5*M_1_5 [5] + 6*M_2_5 [10] + 4*M_3_5 [15] + 8*M_4_5 [20] + 5*M_5_5 [25] + 5.0*M_5_5 [25] <= 0
Criando restrição para valores preenchidos: 


/* Objective function */
min: +Y_1 +Y_2 +Y_3 +Y_4 +Y_5;

/* Constraints */
+M_1_1 +M_1_2 +M_1_3 +M_1_4 +M_1_5 = 1;
+M_2_1 +M_2_2 +M_2_3 +M_2_4 +M_2_5 = 1;
+M_3_1 +M_3_2 +M_3_3 +M_3_4 +M_3_5 = 1;
+M_4_1 +M_4_2 +M_4_3 +M_4_4 +M_4_5 = 1;
+M_5_1 +M_5_2 +M_5_3 +M_5_4 +M_5_5 = 1;
+5 M_1_1 +6 M_2_1 +4 M_3_1 +8 M_4_1 +5 M_5_1 -10 Y_1 <= 0;
+5 M_1_2 +6 M_2_2 +4 M_3_2 +8 M_4_2 +5 M_5_2 -10 Y_2 <= 0;
+5 M_1_3 +6 M_2_3 +4 M_3_3 +8 M_4_3 +5 M_5_3 -10 Y_3 <= 0;
+5 M_1_4 +6 M_2_4 +4 M_3_4 +8 M_4_4 +5 M_5_4 -10 Y_4 <= 0;
+5 M_1_5 +6 M_2_5 +4 M_3_5 +8 M_4_5 +5 M_5_5 -10 Y_5 <= 0;
R11: +Y_1 >= 0;
R12: +Y_1 <= 1;
R13: +M_1_1 >= 0;
R14: +M_1_1 <= 1;
R15: +M_1_2 >= 0;
R16: +M_1_2 <= 1;
R17: +M_1_3 >= 0;
R18: +M_1_3 <= 1;
R19: +M_1_4 >= 0;
R20: +M_1_4 <= 1;
R21: +M_1_5 >= 0;
R22: +M_1_5 <= 1;
R23: +Y_2 = 1;
R24: +M_2_1 >= 0;
R25: +M_2_1 <= 1;
R26: +M_2_2 >= 0;
R27: +M_2_2 <= 1;
R28: +M_2_3 >= 0;
R29: +M_2_3 <= 1;
R30: +M_2_4 >= 0;
R31: +M_2_4 <= 1;
R32: +M_2_5 >= 0;
R33: +M_2_5 <= 1;
R34: +Y_3 = 1;
R35: +M_3_1 >= 0;
R36: +M_3_1 <= 1;
R37: +M_3_2 = 1;
R38: +M_3_3 >= 0;
R39: +M_3_3 <= 1;
R40: +M_3_4 >= 0;
R41: +M_3_4 <= 1;
R42: +M_3_5 >= 0;
R43: +M_3_5 <= 1;
R44: +Y_4 >= 0;
R45: +Y_4 <= 1;
R46: +M_4_1 >= 0;
R47: +M_4_1 <= 1;
R48: +M_4_2 >= 0;
R49: +M_4_2 <= 1;
R50: +M_4_3 >= 0;
R51: +M_4_3 <= 1;
R52: +M_4_4 >= 0;
R53: +M_4_4 <= 1;
R54: +M_4_5 >= 0;
R55: +M_4_5 <= 1;
R56: +Y_5 >= 0;
R57: +Y_5 <= 1;
R58: +M_5_1 >= 0;
R59: +M_5_1 <= 1;
R60: +M_5_2 >= 0;
R61: +M_5_2 <= 1;
R62: +M_5_3 = 1;
R63: +M_5_4 >= 0;
R64: +M_5_4 <= 1;
R65: +M_5_5 >= 0;
R66: +M_5_5 <= 1;

Objective value: 2.800000
M_1_1: 1.000000
M_1_2: 0.000000
M_1_3: 0.000000
M_1_4: 0.000000
M_1_5: 0.000000
M_2_1: 0.500000
M_2_2: 0.500000
M_2_3: 0.000000
M_2_4: 0.000000
M_2_5: 0.000000
M_3_1: 0.000000
M_3_2: 1.000000
M_3_3: 0.000000
M_3_4: 0.000000
M_3_5: 0.000000
M_4_1: 0.000000
M_4_2: 0.375000
M_4_3: 0.625000
M_4_4: 0.000000
M_4_5: 0.000000
M_5_1: 0.000000
M_5_2: 0.000000
M_5_3: 1.000000
M_5_4: 0.000000
M_5_5: 0.000000
Y_1: 0.800000
Y_2: 1.000000
Y_3: 1.000000
Y_4: 0.000000
Y_5: 0.000000
